../spot5/1502.spot 209 4 411 89201
2 2 2 2 2 2 2 2 2 2 2 2 2 4 2 2 2 2 2 2 2 2 4 2 4 4 4 4 2 2 2 2 2 2 4 4 2 2 2 2 2 2 2 2 2 2 4 4 4 4 2 2 2 2 2 4 4 4 4 2 4 4 4 2 2 2 4 4 4 4 4 4 2 2 2 2 2 2 2 2 2 2 2 4 4 2 2 2 2 2 2 4 4 2 2 2 2 2 2 2 2 2 2 2 2 2 4 4 4 4 2 4 4 4 4 4 4 4 4 4 4 4 2 2 2 2 2 2 2 2 2 2 4 4 4 4 4 4 4 4 2 2 2 2 4 4 2 2 2 4 4 2 2 2 2 4 4 4 4 4 4 4 4 4 4 2 2 4 4 4 4 4 4 4 4 4 4 4 4 4 4 4 4 4 4 4 4 4 4 4 4 4 4 4 2 4 4 4 2 4 2 2 2 2 4 4 4 4 4
3 110 115 121 0 1
0 1 0 89201
2 198 197 0 2
0 2 89201
0 0 89201
2 50 49 0 1
0 1 89201
2 182 181 0 3
2 2 89201
1 1 89201
0 0 89201
2 35 32 0 1
1 0 89201
3 22 29 35 0 1
2 0 0 89201
2 188 189 0 3
2 2 89201
1 1 89201
0 0 89201
2 178 177 0 3
2 2 89201
1 1 89201
0 0 89201
2 180 179 0 3
2 2 89201
1 1 89201
0 0 89201
2 150 149 0 3
2 2 89201
1 1 89201
0 0 89201
2 142 139 0 1
0 1 89201
2 33 32 0 1
0 0 89201
2 148 144 0 1
0 1 89201
2 198 205 0 1
0 1 89201
2 37 36 0 1
0 0 89201
2 144 145 0 3
2 2 89201
1 1 89201
0 0 89201
3 114 108 119 0 1
1 2 0 89201
2 77 76 0 1
0 0 89201
2 136 137 0 3
2 2 89201
1 1 89201
0 0 89201
2 188 190 0 3
2 2 89201
1 1 89201
0 0 89201
2 113 112 0 3
2 2 89201
1 1 89201
0 0 89201
2 110 109 0 2
0 2 89201
0 0 89201
2 184 183 0 3
2 2 89201
1 1 89201
0 0 89201
2 168 167 0 3
2 2 89201
1 1 89201
0 0 89201
2 86 85 0 1
0 0 89201
2 159 167 0 1
2 0 89201
2 49 48 0 3
2 2 89201
1 1 89201
0 0 89201
2 35 33 0 1
1 0 89201
2 142 148 0 1
0 0 89201
2 147 144 0 1
0 1 89201
2 151 159 0 1
0 0 89201
3 116 107 113 0 1
0 2 1 89201
2 136 134 0 3
2 2 89201
1 1 89201
0 0 89201
2 168 170 0 1
0 0 89201
2 160 162 0 1
1 1 89201
2 110 111 0 2
0 2 89201
0 0 89201
2 156 155 0 3
2 2 89201
1 1 89201
0 0 89201
2 116 119 0 3
2 2 89201
1 1 89201
0 0 89201
2 143 147 0 1
0 0 89201
2 51 49 0 1
0 2 89201
2 92 91 0 3
2 2 89201
1 1 89201
0 0 89201
2 22 23 0 1
1 0 89201
2 48 42 0 1
0 0 89201
3 187 192 185 0 1
1 0 2 89201
2 143 142 0 1
0 0 89201
2 143 148 0 1
0 0 89201
2 17 16 0 1
0 0 89201
2 29 28 0 1
0 0 89201
2 141 136 0 1
0 1 89201
2 140 136 0 1
0 1 89201
2 162 168 0 1
1 0 89201
3 106 117 113 0 1
2 0 1 89201
2 163 168 0 1
1 0 89201
2 136 139 0 3
2 2 89201
1 1 89201
0 0 89201
2 67 66 0 3
2 2 89201
1 1 89201
0 0 89201
2 141 140 0 1
0 0 89201
2 52 48 0 1
0 2 89201
2 195 194 0 1
1 0 89201
2 117 116 0 3
2 2 89201
1 1 89201
0 0 89201
2 152 160 0 1
0 0 89201
2 39 38 0 1
0 0 89201
2 159 168 0 1
2 0 89201
3 114 109 118 0 1
1 2 0 89201
2 152 149 0 1
0 1 89201
2 198 208 0 1
0 0 89201
2 71 70 0 3
2 2 89201
1 1 89201
0 0 89201
2 136 135 0 3
2 2 89201
1 1 89201
0 0 89201
2 48 43 0 1
0 0 89201
2 151 156 0 1
0 1 89201
2 142 145 0 1
0 1 89201
2 88 87 0 1
0 0 89201
2 164 168 0 1
1 0 89201
2 201 200 0 1
0 0 89201
2 151 155 0 1
0 1 89201
2 35 34 0 3
2 2 89201
1 1 89201
0 0 89201
2 138 137 0 3
2 2 89201
1 1 89201
0 0 89201
3 106 116 113 0 1
2 0 1 89201
2 151 158 0 1
0 0 89201
3 115 111 120 0 1
1 2 0 89201
2 19 18 0 1
0 0 89201
2 45 44 0 1
0 0 89201
2 93 94 0 1
0 0 89201
2 141 137 0 1
0 1 89201
2 140 137 0 1
0 1 89201
3 22 28 34 0 1
2 0 0 89201
2 192 191 0 3
2 2 89201
1 1 89201
0 0 89201
2 168 169 0 1
0 0 89201
2 58 57 0 3
2 2 89201
1 1 89201
0 0 89201
2 110 108 0 2
0 2 89201
0 0 89201
2 117 119 0 3
2 2 89201
1 1 89201
0 0 89201
2 174 173 0 3
2 2 89201
1 1 89201
0 0 89201
2 158 163 0 1
2 1 89201
2 22 25 0 3
2 2 89201
1 1 89201
0 0 89201
2 166 165 0 1
0 0 89201
2 154 153 0 1
0 0 89201
2 158 164 0 1
2 1 89201
3 187 191 185 0 1
1 0 2 89201
3 22 29 34 0 1
2 0 0 89201
2 114 115 0 3
2 2 89201
1 1 89201
0 0 89201
2 143 139 0 1
0 1 89201
2 102 101 0 1
0 0 89201
3 116 107 112 0 1
0 2 1 89201
2 54 53 0 1
0 0 89201
2 156 157 0 3
2 2 89201
1 1 89201
0 0 89201
2 152 161 0 1
0 0 89201
2 95 96 0 1
0 0 89201
2 52 51 0 1
0 0 89201
2 50 48 0 1
0 1 89201
2 176 175 0 3
2 2 89201
1 1 89201
0 0 89201
2 22 21 0 1
1 0 89201
3 117 107 112 0 1
0 2 1 89201
2 148 147 0 1
0 0 89201
2 79 78 0 1
0 0 89201
2 72 73 0 1
0 0 89201
2 106 107 0 3
2 2 89201
1 1 89201
0 0 89201
3 114 109 119 0 1
1 2 0 89201
2 138 139 0 3
2 2 89201
1 1 89201
0 0 89201
2 13 12 0 1
1 0 89201
2 106 109 0 3
2 2 89201
1 1 89201
0 0 89201
2 142 144 0 1
0 1 89201
2 121 120 0 3
2 2 89201
1 1 89201
0 0 89201
2 34 32 0 1
1 0 89201
3 115 111 121 0 1
1 2 0 89201
2 119 118 0 3
2 2 89201
1 1 89201
0 0 89201
2 3 2 0 1
0 0 89201
3 22 28 35 0 1
2 0 0 89201
2 22 24 0 3
2 2 89201
1 1 89201
0 0 89201
2 142 138 0 1
0 1 89201
2 11 10 0 1
0 0 89201
2 62 61 0 3
2 2 89201
1 1 89201
0 0 89201
3 195 188 193 0 1
0 2 1 89201
3 106 117 112 0 1
2 0 1 89201
2 207 206 0 3
2 2 89201
1 1 89201
0 0 89201
2 162 157 0 1
1 2 89201
2 152 147 0 1
0 0 89201
2 167 170 0 1
0 0 89201
2 123 122 0 1
0 0 89201
2 83 84 0 3
2 2 89201
1 1 89201
0 0 89201
2 129 128 0 1
0 0 89201
2 49 42 0 1
0 0 89201
2 22 20 0 2
2 0 89201
0 0 89201
2 143 144 0 1
0 1 89201
2 158 159 0 3
2 2 89201
1 1 89201
0 0 89201
2 152 157 0 1
0 1 89201
2 152 150 0 1
0 1 89201
2 158 162 0 1
2 1 89201
3 106 116 112 0 1
2 0 1 89201
2 7 6 0 1
0 0 89201
3 187 191 186 0 1
1 0 2 89201
2 152 148 0 1
0 0 89201
2 34 33 0 1
1 0 89201
2 47 46 0 3
2 2 89201
1 1 89201
0 0 89201
2 143 138 0 1
0 1 89201
2 51 48 0 1
0 2 89201
2 15 14 0 1
0 0 89201
2 142 147 0 1
0 0 89201
2 125 124 0 1
0 0 89201
2 162 167 0 1
1 0 89201
2 109 108 0 3
2 2 89201
1 1 89201
0 0 89201
2 43 42 0 1
0 0 89201
3 110 115 120 0 1
0 1 0 89201
2 163 167 0 1
1 0 89201
2 52 49 0 1
0 2 89201
3 159 163 156 0 1
1 0 2 89201
2 161 162 0 1
1 1 89201
2 156 153 0 1
1 0 89201
2 170 169 0 3
2 2 89201
1 1 89201
0 0 89201
2 49 43 0 1
0 0 89201
2 205 204 0 3
2 2 89201
1 1 89201
0 0 89201
2 143 145 0 1
0 1 89201
3 159 163 155 0 1
1 0 2 89201
2 164 167 0 1
1 0 89201
3 187 192 186 0 1
1 0 2 89201
2 186 185 0 3
2 2 89201
1 1 89201
0 0 89201
3 159 164 156 0 1
1 0 2 89201
3 114 108 118 0 1
1 2 0 89201
2 41 40 0 1
0 0 89201
3 117 107 113 0 1
0 2 1 89201
2 127 126 0 1
0 0 89201
3 159 164 155 0 1
1 0 2 89201
2 69 68 0 3
2 2 89201
1 1 89201
0 0 89201
2 56 55 0 3
2 2 89201
1 1 89201
0 0 89201
2 198 204 0 1
0 1 89201
2 5 4 0 1
0 0 89201
2 100 99 0 1
0 0 89201
2 31 30 0 1
0 0 89201
2 203 202 0 1
0 0 89201
2 190 189 0 3
2 2 89201
1 1 89201
0 0 89201
2 197 196 0 3
2 2 89201
1 1 89201
0 0 89201
2 198 199 0 2
0 2 89201
0 0 89201
2 161 160 0 3
2 2 89201
1 1 89201
0 0 89201
2 106 108 0 3
2 2 89201
1 1 89201
0 0 89201
2 9 8 0 1
0 0 89201
2 198 201 0 1
0 0 89201
2 164 163 0 3
2 2 89201
1 1 89201
0 0 89201
2 27 26 0 3
2 2 89201
1 1 89201
0 0 89201
2 167 169 0 1
0 0 89201
2 25 24 0 3
2 2 89201
1 1 89201
0 0 89201
2 172 171 0 3
2 2 89201
1 1 89201
0 0 89201
2 116 118 0 3
2 2 89201
1 1 89201
0 0 89201
2 60 59 0 2
2 0 89201
0 0 89201
2 135 134 0 3
2 2 89201
1 1 89201
0 0 89201
1 0 0 1
1 1000
1 1 0 1
1 1000
1 2 0 1
1 1000
1 3 0 1
1 1000
1 4 0 1
1 1000
1 5 0 1
1 1000
1 6 0 1
1 1000
1 7 0 1
1 1000
1 8 0 1
1 1000
1 9 0 1
1 1000
1 10 0 1
1 1000
1 11 0 1
1 1000
1 12 0 1
1 1
1 13 0 1
3 2
1 14 0 1
1 1000
1 15 0 1
1 1000
1 16 0 1
1 1000
1 17 0 1
1 1000
1 18 0 1
1 2000
1 19 0 1
1 2000
1 20 0 1
1 2000
1 21 0 1
1 2000
1 22 0 1
3 2000
1 23 0 1
1 1000
1 24 0 1
3 2000
1 25 0 1
3 2000
1 26 0 1
3 2000
1 27 0 1
3 2000
1 28 0 1
1 1000
1 29 0 1
1 1000
1 30 0 1
1 2000
1 31 0 1
1 1000
1 32 0 1
1 2000
1 33 0 1
1 2000
1 34 0 1
3 1
1 35 0 1
3 1
1 36 0 1
1 2000
1 37 0 1
1 2000
1 38 0 1
1 2000
1 39 0 1
1 2000
1 40 0 1
1 2000
1 41 0 1
1 2000
1 42 0 1
1 2000
1 43 0 1
1 2000
1 44 0 1
1 2000
1 45 0 1
1 2000
1 46 0 1
3 2000
1 47 0 1
3 2000
1 48 0 1
3 2000
1 49 0 1
3 2000
1 50 0 1
1 2000
1 51 0 1
1 1
1 52 0 1
1 1
1 53 0 1
1 1
1 54 0 1
1 1
1 55 0 1
3 1000
1 56 0 1
3 1000
1 57 0 1
3 1000
1 58 0 1
3 1000
1 59 0 1
1 1000
1 60 0 1
3 1000
1 61 0 1
3 1000
1 62 0 1
3 1000
1 63 0 1
1 1000
1 64 0 1
1 1000
1 65 0 1
1 1000
1 66 0 1
3 1
1 67 0 1
3 1
1 68 0 1
3 1
1 69 0 1
3 1
1 70 0 1
3 1
1 71 0 1
3 1
1 72 0 1
1 1000
1 73 0 1
1 1000
1 74 0 1
1 1000
1 75 0 1
1 1000
1 76 0 1
1 2
1 77 0 1
1 2
1 78 0 1
1 1
1 79 0 1
1 1
1 80 0 1
1 1
1 81 0 1
1 2
1 82 0 1
1 2
1 83 0 1
3 1
1 84 0 1
3 1
1 85 0 1
1 2
1 86 0 1
1 2
1 87 0 1
1 2
1 88 0 1
1 2
1 89 0 1
1 2
1 90 0 1
1 2
1 91 0 1
3 1
1 92 0 1
3 1
1 93 0 1
1 2
1 94 0 1
1 2
1 95 0 1
1 5
1 96 0 1
1 5
1 97 0 1
1 1
1 98 0 1
1 1
1 99 0 1
1 2
1 100 0 1
1 2
1 101 0 1
1 1
1 102 0 1
1 1
1 103 0 1
1 5
1 104 0 1
1 5
1 105 0 1
1 1
1 106 0 1
3 1
1 107 0 1
3 1
1 108 0 1
3 1
1 109 0 1
3 1
1 110 0 1
1 2
1 111 0 1
3 1
1 112 0 1
3 1
1 113 0 1
3 1
1 114 0 1
3 1
1 115 0 1
3 1
1 116 0 1
3 1
1 117 0 1
3 1
1 118 0 1
3 1
1 119 0 1
3 1
1 120 0 1
3 1
1 121 0 1
3 1
1 122 0 1
1 1
1 123 0 1
1 1
1 124 0 1
1 2
1 125 0 1
1 2
1 126 0 1
1 2
1 127 0 1
1 2
1 128 0 1
1 2
1 129 0 1
1 2
1 130 0 1
1 2
1 131 0 1
1 2
1 132 0 1
3 1
1 133 0 1
3 1
1 134 0 1
3 1
1 135 0 1
3 1
1 136 0 1
3 1
1 137 0 1
3 1
1 138 0 1
3 1
1 139 0 1
3 1
1 140 0 1
1 2
1 141 0 1
1 2
1 142 0 1
1 2
1 143 0 1
1 2
1 144 0 1
3 1
1 145 0 1
3 1
1 146 0 1
1 1
1 147 0 1
1 2
1 148 0 1
1 2
1 149 0 1
3 1
1 150 0 1
3 1
1 151 0 1
1 2
1 152 0 1
1 2
1 153 0 1
1 1
1 154 0 1
1 1
1 155 0 1
3 1
1 156 0 1
3 1
1 157 0 1
3 1
1 158 0 1
3 1
1 159 0 1
3 1
1 160 0 1
3 1
1 161 0 1
3 1
1 162 0 1
3 1
1 163 0 1
3 1
1 164 0 1
3 1
1 165 0 1
1 1
1 166 0 1
1 1
1 167 0 1
3 1
1 168 0 1
3 1
1 169 0 1
3 1
1 170 0 1
3 1
1 171 0 1
3 1
1 172 0 1
3 1
1 173 0 1
3 1
1 174 0 1
3 1
1 175 0 1
3 1
1 176 0 1
3 1
1 177 0 1
3 1
1 178 0 1
3 1
1 179 0 1
3 1
1 180 0 1
3 1
1 181 0 1
3 1
1 182 0 1
3 1
1 183 0 1
3 1
1 184 0 1
3 1
1 185 0 1
3 1
1 186 0 1
3 1
1 187 0 1
3 1
1 188 0 1
3 1
1 189 0 1
3 1
1 190 0 1
3 1
1 191 0 1
3 1
1 192 0 1
3 1
1 193 0 1
3 1
1 194 0 1
1 1
1 195 0 1
3 1
1 196 0 1
3 1
1 197 0 1
3 1
1 198 0 1
1 2
1 199 0 1
3 1
1 200 0 1
1 2
1 201 0 1
1 2
1 202 0 1
1 2
1 203 0 1
1 2
1 204 0 1
3 1
1 205 0 1
3 1
1 206 0 1
3 1
1 207 0 1
3 1
1 208 0 1
3 1
